
Gurobi 9.5.1 (linux64) logging started Tue Jun  7 17:07:17 2022

Set parameter LogFile to value "../results/logs/log_Gowalla_edges_3_2_2022_06_07_14_43.log"
Gurobi Optimizer version 9.5.1 build v9.5.1rc2 (linux64)
Thread count: 8 physical cores, 8 logical processors, using up to 8 threads
Optimize a model with 20527 rows, 393182 columns and 191427 nonzeros
Model fingerprint: 0xdb4af246
Variable types: 0 continuous, 393182 integer (393182 binary)
Coefficient statistics:
  Matrix range     [1e+00, 3e+00]
  Objective range  [1e+00, 1e+00]
  Bounds range     [1e+00, 1e+00]
  RHS range        [1e+00, 2e+00]
Found heuristic solution: objective 106417.00000
Presolve removed 12724 rows and 382126 columns
Presolve time: 1.29s
Presolved: 7803 rows, 11056 columns, 32859 nonzeros
Variable types: 0 continuous, 11056 integer (10460 binary)
Found heuristic solution: objective 106419.00000

Root relaxation: objective 1.068835e+05, 2492 iterations, 0.01 seconds (0.01 work units)

    Nodes    |    Current Node    |     Objective Bounds      |     Work
 Expl Unexpl |  Obj  Depth IntInf | Incumbent    BestBd   Gap | It/Node Time

     0     0 106883.545    0  479 106419.000 106883.545  0.44%     -    1s
H    0     0                    106427.00000 106883.545  0.43%     -    1s
     0     0 106457.633    0   50 106427.000 106457.633  0.03%     -    1s
     0     0 106451.000    0   50 106427.000 106451.000  0.02%     -    1s
     0     0 106450.833    0   51 106427.000 106450.833  0.02%     -    1s
H    0     0                    106428.00000 106450.833  0.02%     -    1s
     0     0 106444.594    0   47 106428.000 106444.594  0.02%     -    1s
H    0     0                    106429.00000 106444.594  0.01%     -    2s
     0     0 106439.244    0   35 106429.000 106439.244  0.01%     -    2s
     0     0 106439.244    0   34 106429.000 106439.244  0.01%     -    2s
     0     0 106439.000    0   21 106429.000 106439.000  0.01%     -    2s
     0     0 106439.000    0  390 106429.000 106439.000  0.01%     -    2s
     0     0 106439.000    0   51 106429.000 106439.000  0.01%     -    2s
     0     0 106439.000    0   47 106429.000 106439.000  0.01%     -    2s
     0     0 106439.000    0   38 106429.000 106439.000  0.01%     -    2s
     0     0 106439.000    0   23 106429.000 106439.000  0.01%     -    2s
     0     0 106439.000    0   21 106429.000 106439.000  0.01%     -    2s
     0     0 106436.464    0   34 106429.000 106436.464  0.01%     -    2s
     0     0 106436.263    0   28 106429.000 106436.263  0.01%     -    3s
     0     0 106436.263    0   33 106429.000 106436.263  0.01%     -    3s
     0     0 106435.000    0   24 106429.000 106435.000  0.01%     -    3s
     0     0 106435.000    0  214 106429.000 106435.000  0.01%     -    3s
     0     0 106435.000    0   38 106429.000 106435.000  0.01%     -    3s
     0     0 106435.000    0   30 106429.000 106435.000  0.01%     -    3s
     0     0 106435.000    0   24 106429.000 106435.000  0.01%     -    3s
     0     0 106435.000    0   26 106429.000 106435.000  0.01%     -    3s
     0     0 106435.000    0   24 106429.000 106435.000  0.01%     -    3s
     0     0 106435.000    0   23 106429.000 106435.000  0.01%     -    3s
     0     0 106434.000    0   16 106429.000 106434.000  0.00%     -    3s
     0     0 106433.000    0   12 106429.000 106433.000  0.00%     -    3s
     0     0 106433.000    0  112 106429.000 106433.000  0.00%     -    3s
     0     0 106433.000    0   16 106429.000 106433.000  0.00%     -    3s
H    0     0                    106430.00000 106433.000  0.00%     -    3s
     0     0     cutoff    0      106430.000 106430.000  0.00%     -    3s

Cutting planes:
  Gomory: 47
  Cover: 6
  MIR: 53
  StrongCG: 1
  GUB cover: 87
  Zero half: 5

Explored 1 nodes (7558 simplex iterations) in 3.35 seconds (2.57 work units)
Thread count was 8 (of 8 available processors)

Solution count 7: 106430 106429 106429 ... 106417

Optimal solution found (tolerance 0.00e+00)
Best objective 1.064300000000e+05, best bound 1.064300000000e+05, gap 0.0000%
